(set-logic BV)
(set-info :status unknown)
(declare-fun ez_3 () (_ BitVec 1))
(declare-fun ez_2 () (_ BitVec 1))
(declare-fun ez_9 () (_ BitVec 1))
(declare-fun ez_6 () (_ BitVec 1))
(declare-fun ez_4 () (_ BitVec 1))
(declare-fun ez_8 () (_ BitVec 1))
(declare-fun ez_7 () (_ BitVec 1))
(declare-fun ez_5 () (_ BitVec 1))
(assert
 (forall ((s_1 (_ BitVec 1)) (s_2 (_ BitVec 1)) (s_3 (_ BitVec 1)) (s_4 (_ BitVec 1)) (cz_1 (_ BitVec 1)) (cz_2 (_ BitVec 1)) (cz_3 (_ BitVec 1)) (cz_5 (_ BitVec 1)) (cz_6 (_ BitVec 1)) (cz_4 (_ BitVec 1)) (cz_7 (_ BitVec 1)) (cz_8 (_ BitVec 1)) (cz_9 (_ BitVec 1)) )(exists ((ezaux_1_9 (_ BitVec 4)) (czaux_1_9 (_ BitVec 4)) )(let (($x98 (bvule czaux_1_9 (ite (= ((_ extract 3 1) ezaux_1_9) (_ bv0 3)) ezaux_1_9 (_ bv1 4)))))
 (let (($x132 (= s_4 (bvadd cz_6 cz_9))))
 (let (($x134 (= s_3 (bvadd cz_1 cz_4))))
 (let (($x138 (= s_1 (bvadd cz_2 cz_3 cz_5 cz_6))))
 (let ((?x28 (bvadd ez_6 ez_9)))
 (let (($x141 (= s_4 ?x28)))
 (let (($x142 (= s_3 ez_4)))
 (let ((?x43 (bvadd ez_2 ez_3 ez_5 ez_6)))
 (let (($x144 (= s_1 ?x43)))
 (let (($x145 (and $x144 (= s_2 (bvadd ez_4 ez_5 ez_7 ez_8)) $x142 $x141 (= cz_1 (bvadd cz_2 cz_3 ez_2 ez_3)) $x138 (= s_2 (bvadd cz_4 cz_5 cz_7 cz_8)) $x134 $x132 $x98)))
 (let ((?x21 (bvadd (bvadd (bvadd (_ bv0 4) ((_ zero_extend 3) (_ bv0 1))) ((_ zero_extend 3) ez_2)) ((_ zero_extend 3) ez_3))))
 (let ((?x35 (bvadd (bvadd (bvadd ?x21 ((_ zero_extend 3) ez_4)) ((_ zero_extend 3) ez_5)) ((_ zero_extend 3) ez_6))))
 (let ((?x41 (bvadd (bvadd (bvadd ?x35 ((_ zero_extend 3) ez_7)) ((_ zero_extend 3) ez_8)) ((_ zero_extend 3) ez_9))))
 (let (($x101 (= ?x41 ezaux_1_9)))
 (let ((?x158 (bvadd (bvadd (bvadd (_ bv0 4) ((_ zero_extend 3) cz_1)) ((_ zero_extend 3) cz_2)) ((_ zero_extend 3) cz_3))))
 (let ((?x161 (bvadd (bvadd (bvadd ?x158 ((_ zero_extend 3) cz_4)) ((_ zero_extend 3) cz_5)) ((_ zero_extend 3) cz_6))))
 (let ((?x164 (bvadd (bvadd (bvadd ?x161 ((_ zero_extend 3) cz_7)) ((_ zero_extend 3) cz_8)) ((_ zero_extend 3) cz_9))))
 (and (not (bvule ezaux_1_9 ((_ zero_extend 3) (_ bv1 1)))) (bvule ?x41 ((_ zero_extend 2) (_ bv2 2))) (and $x101 (= ?x164 czaux_1_9) $x101) (not $x145))))))))))))))))))))
 )
 )
(check-sat)